NAME 
ROWS
 N  OBJ
 L  R0      
 L  R1      
 L  R2      
 E  R3      
 E  R4      
 E  R5      
 E  R6      
 E  R7      
 E  R8      
 E  R9      
 E  R10     
 E  R11     
 E  R12     
COLUMNS
    MARKER    'MARKER'                 'INTORG'
    I0(9)     OBJ       27
    I0(9)     R0        -37
    I0(9)     R1        -200
    I0(9)     R2        -111
    I0(9)     R4        13
    I0(9)     R5        5
    I0(9)     R6        16
    I0(9)     R7        -1
    I0(9)     R8        6
    I0(9)     R12       1
    I1(10)    OBJ       -60
    I1(10)    R0        181
    I1(10)    R1        42
    I1(10)    R2        -78
    I1(10)    R3        17
    I1(10)    R4        14
    I1(10)    R5        1
    I1(10)    R6        4
    I1(10)    R7        2
    I1(10)    R8        17
    I1(10)    R12       1
    I2(9)     OBJ       91
    I2(9)     R0        -180
    I2(9)     R1        113
    I2(9)     R2        -138
    I2(9)     R4        16
    I2(9)     R5        1
    I2(9)     R6        9
    I2(9)     R7        19
    I2(9)     R8        2
    I2(9)     R12       1
    I3(7)     OBJ       121
    I3(7)     R0        -110
    I3(7)     R1        83
    I3(7)     R2        109
    I3(7)     R3        9
    I3(7)     R4        5
    I3(7)     R6        5
    I3(7)     R12       1
    I4(8)     OBJ       -165
    I4(8)     R0        93
    I4(8)     R1        155
    I4(8)     R2        144
    I4(8)     R3        15
    I4(8)     R4        18
    I4(8)     R7        2
    I4(8)     R8        4
    I4(8)     R12       1
    I5(8)     OBJ       -47
    I5(8)     R0        -33
    I5(8)     R1        188
    I5(8)     R2        -158
    I5(8)     R3        1
    I5(8)     R5        -1
    I5(8)     R6        15
    I5(8)     R8        2
    I5(8)     R12       1
    MARKER    'MARKER'                 'INTEND'
    C6(11)    OBJ       -3
    C6(11)    R0        -10
    C6(11)    R1        -10
    C6(11)    R2        -6
    C6(11)    R3        7
    C6(11)    R4        8
    C6(11)    R5        13
    C6(11)    R6        11
    C6(11)    R7        3
    C6(11)    R8        -1
    C6(11)    R10       9
    C6(11)    R11       7
    C7(8)     OBJ       1
    C7(8)     R0        -2
    C7(8)     R1        3
    C7(8)     R2        7
    C7(8)     R3        14
    C7(8)     R4        3
    C7(8)     R7        14
    C7(8)     R8        16
    C7(8)     R9        6
    C8(9)     OBJ       7
    C8(9)     R0        -5
    C8(9)     R1        8
    C8(9)     R2        -8
    C8(9)     R3        18
    C8(9)     R4        -1
    C8(9)     R5        19
    C8(9)     R6        5
    C8(9)     R7        16
    C8(9)     R8        9
    C9(11)    OBJ       9
    C9(11)    R0        6
    C9(11)    R1        -2
    C9(11)    R2        -1
    C9(11)    R3        19
    C9(11)    R5        9
    C9(11)    R6        2
    C9(11)    R7        8
    C9(11)    R8        15
    C9(11)    R9        19
    C9(11)    R10       10
    C9(11)    R11       11
    C10(1)    R3        1
    C11(1)    R4        1
    C12(1)    R5        1
    C13(1)    R6        1
    C14(1)    R7        1
    C15(1)    R8        1
    C16(1)    R9        1
    C17(1)    R10       1
    C18(1)    R11       1
    C19(1)    R12       1
RHS
    RHS1      R0        250.25
    RHS1      R1        173.25
    RHS1      R2        51.75
    RHS1      R3        94
    RHS1      R4        51
    RHS1      R5        87
    RHS1      R6        99
    RHS1      R7        80
    RHS1      R8        58
    RHS1      R9        89
    RHS1      R10       84
    RHS1      R11       75
    RHS1      R12       2
BOUNDS
 UP BND1      I0(9)     1
 UP BND1      I1(10)    1
 UP BND1      I2(9)     1
 UP BND1      I3(7)     1
 UP BND1      I4(8)     1
 UP BND1      I5(8)     1
ENDATA
